jobs  (incl. supersource/sink ):	102
RESOURCES
- renewable                 : 4 R
- nonrenewable              : 2 N
- doubly constrained        : 0 D
************************************************************************
PRECEDENCE RELATIONS:
jobnr.    #modes  #successors   successors
1	1	11		2 3 4 5 6 7 9 11 12 13 16 
2	6	8		29 27 24 22 19 18 15 10 
3	6	5		27 18 14 10 8 
4	6	8		31 29 24 23 22 21 20 17 
5	6	8		31 29 27 23 22 21 20 17 
6	6	6		24 23 22 19 17 15 
7	6	5		31 27 23 17 15 
8	6	5		31 29 25 22 15 
9	6	1		10 
10	6	5		38 31 23 20 17 
11	6	5		31 22 21 19 17 
12	6	7		32 31 28 24 22 21 20 
13	6	4		38 31 23 17 
14	6	4		32 22 20 17 
15	6	6		35 33 32 28 21 20 
16	6	9		42 41 40 38 34 30 28 26 25 
17	6	8		42 41 34 33 30 28 26 25 
18	6	7		42 38 37 35 33 26 23 
19	6	11		50 46 42 41 40 38 37 35 34 33 30 
20	6	7		46 42 41 39 37 34 26 
21	6	6		46 40 38 37 36 30 
22	6	7		45 44 42 41 40 37 36 
23	6	6		54 49 46 41 34 32 
24	6	5		46 42 39 36 35 
25	6	6		54 50 46 45 44 35 
26	6	5		54 50 44 43 36 
27	6	5		54 50 46 45 36 
28	6	5		57 54 49 46 37 
29	6	5		50 46 45 42 40 
30	6	4		54 47 44 39 
31	6	4		50 49 40 39 
32	6	4		50 47 43 39 
33	6	4		48 47 45 43 
34	6	5		61 57 48 47 43 
35	6	5		61 57 48 47 43 
36	6	6		61 53 52 49 48 47 
37	6	4		61 48 47 43 
38	6	4		56 54 48 43 
39	6	3		52 48 45 
40	6	5		61 56 54 52 48 
41	6	6		61 60 59 58 53 51 
42	6	5		71 58 56 54 51 
43	6	3		53 52 51 
44	6	2		51 49 
45	6	6		62 61 59 58 57 53 
46	6	5		71 61 60 58 51 
47	6	4		71 59 56 51 
48	6	4		71 59 58 51 
49	6	9		71 68 66 65 63 62 59 58 56 
50	6	8		72 71 70 69 63 62 58 57 
51	6	6		72 69 68 64 63 55 
52	6	6		73 71 70 60 59 58 
53	6	9		72 71 70 69 68 67 66 64 63 
54	6	8		74 73 72 70 67 66 65 59 
55	6	6		74 73 70 66 65 62 
56	6	6		83 77 73 70 67 60 
57	6	6		77 74 73 68 66 65 
58	6	6		88 79 76 75 67 64 
59	6	6		88 83 80 79 76 64 
60	6	8		88 86 82 81 76 75 74 72 
61	6	7		86 85 84 82 79 75 67 
62	6	6		84 83 79 77 75 67 
63	6	9		93 87 86 84 83 81 79 77 75 
64	6	8		93 87 86 85 84 81 78 77 
65	6	9		92 88 87 84 81 80 79 78 75 
66	6	8		93 91 88 86 84 81 79 76 
67	6	8		101 99 93 92 87 81 80 78 
68	6	6		99 93 91 86 81 76 
69	6	6		93 86 82 79 78 75 
70	6	7		101 88 87 86 84 82 81 
71	6	6		101 88 87 85 81 80 
72	6	6		101 99 93 89 84 80 
73	6	5		100 89 88 86 78 
74	6	5		101 98 91 85 79 
75	6	8		101 100 99 98 95 94 91 89 
76	6	8		101 100 97 96 95 92 90 87 
77	6	5		101 100 97 92 82 
78	6	5		98 96 95 91 90 
79	6	5		99 97 95 94 89 
80	6	5		100 98 96 94 91 
81	6	4		98 97 95 89 
82	6	4		98 95 94 89 
83	6	4		98 97 95 90 
84	6	3		100 96 90 
85	6	3		99 97 90 
86	6	3		96 95 94 
87	6	2		98 94 
88	6	2		99 95 
89	6	1		96 
90	6	1		94 
91	6	1		97 
92	6	1		94 
93	6	1		95 
94	6	1		102 
95	6	1		102 
96	6	1		102 
97	6	1		102 
98	6	1		102 
99	6	1		102 
100	6	1		102 
101	6	1		102 
102	1	0		
************************************************************************
REQUESTS/DURATIONS
jobnr.	mode	dur	R1	R2	R3	R4	N1	N2	
------------------------------------------------------------------------
1	1	0	0	0	0	0	0	0	
2	1	1	5	4	5	3	22	10	
	2	5	4	4	4	2	21	10	
	3	11	3	4	3	2	20	9	
	4	13	3	3	3	2	18	8	
	5	26	2	3	3	2	18	8	
	6	27	1	3	2	2	16	7	
3	1	2	4	3	5	4	10	21	
	2	5	4	3	4	3	10	20	
	3	20	4	3	3	3	9	16	
	4	24	4	3	3	2	6	12	
	5	25	3	3	3	2	6	10	
	6	26	3	3	2	2	4	5	
4	1	10	5	5	5	4	17	13	
	2	11	4	5	4	4	14	12	
	3	12	4	5	4	3	11	12	
	4	13	4	5	3	3	9	11	
	5	17	4	5	3	2	7	11	
	6	27	4	5	3	1	3	11	
5	1	13	5	5	4	3	22	17	
	2	21	4	4	3	3	22	15	
	3	22	3	3	3	3	22	15	
	4	24	2	3	2	3	21	15	
	5	26	2	2	1	2	21	13	
	6	30	1	1	1	2	21	13	
6	1	5	5	5	2	4	12	21	
	2	8	4	4	2	4	8	21	
	3	22	4	4	2	3	6	18	
	4	26	3	3	2	2	5	14	
	5	28	3	3	1	2	4	13	
	6	30	2	2	1	1	1	11	
7	1	5	4	5	5	4	16	18	
	2	6	3	3	4	4	15	16	
	3	19	3	3	3	3	12	14	
	4	21	2	3	2	2	10	11	
	5	28	2	2	1	2	8	11	
	6	29	1	1	1	1	6	9	
8	1	2	2	2	1	3	14	17	
	2	6	2	1	1	3	13	16	
	3	9	2	1	1	3	13	15	
	4	12	1	1	1	3	13	13	
	5	13	1	1	1	3	12	12	
	6	30	1	1	1	3	12	11	
9	1	2	4	4	1	1	18	28	
	2	4	4	4	1	1	18	24	
	3	6	4	4	1	1	15	21	
	4	7	4	4	1	1	14	18	
	5	10	4	4	1	1	12	17	
	6	19	4	4	1	1	9	13	
10	1	6	5	4	4	5	27	29	
	2	7	4	3	3	4	27	20	
	3	13	3	3	3	4	25	20	
	4	16	2	3	3	3	24	16	
	5	17	1	2	3	3	24	10	
	6	30	1	2	3	3	22	6	
11	1	1	4	1	4	3	12	27	
	2	3	3	1	4	2	11	27	
	3	4	3	1	4	2	10	27	
	4	11	3	1	3	1	10	26	
	5	12	2	1	2	1	9	25	
	6	20	2	1	2	1	8	25	
12	1	10	3	2	3	4	23	28	
	2	11	3	1	2	4	22	24	
	3	13	3	1	2	4	22	21	
	4	20	3	1	2	3	21	18	
	5	23	3	1	1	3	20	16	
	6	30	3	1	1	3	19	14	
13	1	2	1	5	2	3	11	20	
	2	13	1	4	2	2	9	17	
	3	15	1	4	2	2	9	15	
	4	16	1	3	2	2	8	14	
	5	20	1	2	1	2	7	8	
	6	24	1	2	1	2	6	7	
14	1	8	5	4	4	5	30	20	
	2	14	4	4	4	3	27	19	
	3	16	4	4	4	3	26	19	
	4	18	3	3	4	2	26	19	
	5	19	2	3	4	2	25	19	
	6	25	2	3	4	1	23	19	
15	1	9	4	3	2	4	25	23	
	2	11	4	3	2	4	20	20	
	3	17	4	3	2	4	18	15	
	4	22	4	3	2	3	10	12	
	5	24	4	3	1	2	10	6	
	6	29	4	3	1	2	4	3	
16	1	7	5	5	5	5	29	27	
	2	18	5	4	4	4	25	25	
	3	20	5	4	4	4	20	25	
	4	21	5	4	3	4	20	21	
	5	23	5	4	3	4	15	21	
	6	27	5	4	2	4	12	17	
17	1	22	1	4	3	5	24	21	
	2	23	1	4	2	4	20	21	
	3	24	1	4	2	4	16	18	
	4	26	1	4	2	3	12	16	
	5	27	1	4	2	3	10	15	
	6	28	1	4	2	2	2	13	
18	1	9	5	3	5	3	25	28	
	2	12	4	3	4	3	20	24	
	3	18	4	3	4	3	15	24	
	4	19	3	3	3	2	10	20	
	5	21	3	2	2	2	10	17	
	6	28	3	2	2	1	3	15	
19	1	1	4	4	4	5	2	7	
	2	5	4	4	4	5	2	6	
	3	14	4	3	4	5	2	6	
	4	22	4	3	3	5	2	3	
	5	29	4	3	3	5	2	2	
	6	30	4	2	3	5	2	1	
20	1	11	4	3	3	3	22	13	
	2	12	3	3	3	2	18	10	
	3	16	3	3	3	2	17	10	
	4	24	3	3	3	2	14	9	
	5	25	3	3	3	2	13	7	
	6	28	3	3	3	2	11	6	
21	1	2	4	1	2	5	20	27	
	2	3	4	1	2	4	17	25	
	3	5	3	1	2	4	13	24	
	4	9	2	1	1	3	10	23	
	5	13	1	1	1	2	9	23	
	6	16	1	1	1	2	4	22	
22	1	5	5	2	2	4	18	18	
	2	11	4	1	1	3	13	16	
	3	18	4	1	1	3	11	10	
	4	20	4	1	1	3	10	9	
	5	23	3	1	1	3	4	6	
	6	26	3	1	1	3	1	2	
23	1	1	2	2	1	3	28	10	
	2	10	1	1	1	2	24	10	
	3	21	1	1	1	2	24	9	
	4	28	1	1	1	2	22	10	
	5	29	1	1	1	1	21	10	
	6	30	1	1	1	1	19	10	
24	1	1	4	4	1	4	16	8	
	2	2	4	3	1	3	13	6	
	3	7	3	3	1	3	11	6	
	4	21	2	3	1	3	11	5	
	5	25	2	3	1	2	8	4	
	6	30	1	3	1	2	5	2	
25	1	7	1	4	3	5	26	26	
	2	16	1	3	3	4	24	19	
	3	22	1	3	3	4	22	16	
	4	25	1	3	3	3	18	12	
	5	26	1	3	2	3	18	8	
	6	30	1	3	2	3	15	3	
26	1	1	4	4	4	4	10	18	
	2	3	3	3	4	4	10	16	
	3	4	2	3	4	4	8	16	
	4	21	2	3	3	4	5	13	
	5	22	2	3	3	4	4	12	
	6	27	1	3	3	4	1	9	
27	1	2	3	4	5	4	21	23	
	2	8	2	4	4	3	17	22	
	3	9	2	3	3	3	15	20	
	4	22	1	2	3	3	11	18	
	5	24	1	1	3	3	7	17	
	6	29	1	1	2	3	5	15	
28	1	4	5	4	1	4	24	30	
	2	6	5	4	1	3	24	24	
	3	7	5	3	1	3	24	23	
	4	8	5	3	1	3	24	22	
	5	17	5	1	1	3	24	18	
	6	29	5	1	1	3	24	16	
29	1	4	3	4	5	2	14	12	
	2	7	3	3	3	2	12	12	
	3	8	3	3	3	2	10	10	
	4	11	2	3	2	2	10	8	
	5	23	2	3	1	1	7	6	
	6	25	1	3	1	1	5	3	
30	1	16	4	4	2	4	20	15	
	2	20	4	3	2	4	17	14	
	3	21	4	3	2	4	15	14	
	4	23	4	2	2	4	11	13	
	5	29	4	2	2	4	8	13	
	6	30	4	2	2	4	5	12	
31	1	3	4	1	4	4	1	14	
	2	4	4	1	4	3	1	11	
	3	10	4	1	4	3	1	10	
	4	11	4	1	4	3	1	7	
	5	12	4	1	4	2	1	5	
	6	16	4	1	4	1	1	3	
32	1	4	2	2	3	3	23	20	
	2	6	2	2	3	3	22	16	
	3	8	2	2	2	3	22	14	
	4	9	1	2	2	2	20	10	
	5	11	1	2	1	2	20	9	
	6	15	1	2	1	1	19	3	
33	1	10	5	5	5	2	24	28	
	2	14	4	3	4	2	22	26	
	3	20	4	3	4	2	21	22	
	4	25	4	3	3	2	20	20	
	5	28	4	2	3	2	20	16	
	6	29	4	1	3	2	19	14	
34	1	12	4	4	4	4	25	18	
	2	13	3	3	4	3	23	15	
	3	18	3	3	3	3	18	12	
	4	23	2	2	3	3	15	12	
	5	28	1	2	1	2	13	8	
	6	29	1	2	1	1	10	4	
35	1	5	5	5	4	2	18	22	
	2	6	3	4	3	2	16	20	
	3	10	3	4	3	2	13	19	
	4	23	2	4	3	2	10	16	
	5	28	2	4	2	2	10	15	
	6	29	1	4	2	2	8	13	
36	1	9	1	5	4	1	23	23	
	2	10	1	5	4	1	21	20	
	3	12	1	5	4	1	21	16	
	4	19	1	5	3	1	19	14	
	5	22	1	5	2	1	18	10	
	6	30	1	5	2	1	17	2	
37	1	9	4	2	5	3	20	28	
	2	14	3	1	5	2	17	27	
	3	17	3	1	5	2	17	25	
	4	20	2	1	5	2	16	23	
	5	21	2	1	5	2	15	23	
	6	25	2	1	5	2	13	20	
38	1	1	3	3	4	4	24	28	
	2	6	2	2	3	3	24	22	
	3	12	2	2	3	3	22	18	
	4	15	1	2	3	3	20	17	
	5	16	1	2	3	3	20	13	
	6	25	1	2	3	3	18	7	
39	1	7	4	5	4	4	3	10	
	2	10	4	5	4	3	3	9	
	3	12	4	5	4	3	3	8	
	4	14	4	5	4	3	3	7	
	5	25	4	5	4	3	3	6	
	6	30	4	5	4	3	3	5	
40	1	15	4	4	4	5	12	15	
	2	18	4	3	3	4	12	14	
	3	20	3	2	3	4	9	14	
	4	25	3	2	3	3	8	14	
	5	28	3	1	1	2	8	14	
	6	29	2	1	1	2	5	14	
41	1	5	4	4	3	3	22	16	
	2	7	4	4	3	2	20	12	
	3	19	3	4	3	2	16	11	
	4	20	3	4	3	1	15	7	
	5	24	2	4	3	1	13	6	
	6	27	2	4	3	1	12	1	
42	1	7	5	4	4	1	21	8	
	2	9	4	3	4	1	17	8	
	3	10	3	3	4	1	16	8	
	4	11	3	3	4	1	12	8	
	5	12	1	3	4	1	10	8	
	6	16	1	3	4	1	6	8	
43	1	5	3	4	4	5	26	26	
	2	8	3	4	3	4	25	25	
	3	13	3	4	2	4	25	19	
	4	15	3	4	2	3	24	18	
	5	21	3	3	1	2	24	16	
	6	29	3	3	1	2	23	11	
44	1	2	2	2	4	3	27	27	
	2	5	2	2	4	3	25	23	
	3	15	2	2	3	2	24	20	
	4	16	2	2	3	2	23	15	
	5	17	2	2	3	1	22	12	
	6	21	2	2	2	1	20	11	
45	1	4	2	4	4	4	20	15	
	2	6	2	3	3	3	18	11	
	3	8	2	3	3	3	13	10	
	4	9	2	3	2	2	11	8	
	5	25	2	3	1	2	10	5	
	6	27	2	3	1	2	6	4	
46	1	16	2	2	4	1	23	20	
	2	19	2	2	4	1	23	15	
	3	20	2	2	4	1	22	14	
	4	21	2	2	4	1	21	8	
	5	24	1	2	4	1	20	6	
	6	28	1	2	4	1	19	3	
47	1	8	2	4	4	2	23	23	
	2	13	2	4	4	2	21	21	
	3	14	2	4	4	2	19	20	
	4	15	1	4	4	2	18	17	
	5	18	1	4	4	2	17	15	
	6	23	1	4	4	2	16	12	
48	1	1	3	4	3	4	24	30	
	2	2	3	4	3	3	20	27	
	3	3	2	3	3	3	18	26	
	4	5	2	3	2	2	18	25	
	5	27	2	3	2	1	15	22	
	6	30	1	2	2	1	13	22	
49	1	11	1	5	4	3	25	14	
	2	13	1	4	4	3	24	11	
	3	21	1	4	4	3	21	10	
	4	25	1	4	4	2	21	7	
	5	28	1	3	4	1	19	7	
	6	29	1	3	4	1	17	4	
50	1	1	2	2	5	1	19	24	
	2	2	2	1	4	1	18	23	
	3	4	2	1	4	1	15	23	
	4	5	2	1	4	1	13	22	
	5	9	2	1	4	1	8	21	
	6	29	2	1	4	1	7	21	
51	1	5	4	3	4	1	14	19	
	2	8	3	2	4	1	13	18	
	3	12	3	2	4	1	12	17	
	4	15	2	2	3	1	12	14	
	5	26	2	2	3	1	10	13	
	6	29	2	2	3	1	8	11	
52	1	4	2	2	3	3	25	7	
	2	10	2	1	3	3	21	7	
	3	13	2	1	3	3	16	7	
	4	15	2	1	3	3	15	7	
	5	17	2	1	3	3	11	6	
	6	20	2	1	3	3	8	6	
53	1	2	3	2	3	5	18	17	
	2	4	2	2	2	4	17	17	
	3	7	2	2	2	3	17	16	
	4	25	2	2	2	3	16	16	
	5	27	2	1	1	2	15	15	
	6	29	2	1	1	2	15	14	
54	1	3	5	5	5	3	1	22	
	2	4	4	4	4	3	1	21	
	3	12	4	4	4	3	1	18	
	4	13	4	3	4	2	1	17	
	5	20	4	3	3	2	1	12	
	6	23	4	3	3	2	1	11	
55	1	5	5	4	4	3	18	9	
	2	6	5	4	3	3	16	8	
	3	7	5	4	3	2	12	7	
	4	10	5	3	2	2	10	6	
	5	22	5	3	2	2	8	5	
	6	25	5	2	2	1	6	3	
56	1	1	4	2	3	3	30	25	
	2	24	4	2	2	2	29	22	
	3	25	3	2	2	2	29	18	
	4	26	2	1	2	2	29	14	
	5	27	2	1	1	2	29	14	
	6	30	1	1	1	2	29	9	
57	1	3	1	2	5	1	26	23	
	2	7	1	2	4	1	26	21	
	3	12	1	2	4	1	25	20	
	4	14	1	2	4	1	25	19	
	5	19	1	2	4	1	24	18	
	6	26	1	2	4	1	24	16	
58	1	1	3	4	4	2	17	26	
	2	8	2	4	4	2	14	26	
	3	9	2	3	4	2	14	22	
	4	16	2	3	4	2	13	20	
	5	19	2	1	4	2	12	19	
	6	25	2	1	4	2	10	16	
59	1	4	4	5	2	3	26	17	
	2	6	3	5	2	3	19	17	
	3	7	3	5	2	3	16	17	
	4	20	2	5	2	2	12	17	
	5	25	2	5	1	2	8	16	
	6	29	2	5	1	2	6	16	
60	1	4	5	5	5	5	14	30	
	2	7	4	3	5	4	13	28	
	3	10	4	3	5	3	13	27	
	4	16	4	3	5	3	12	24	
	5	19	4	1	5	3	12	23	
	6	21	4	1	5	2	12	21	
61	1	2	4	3	1	2	26	18	
	2	3	4	3	1	2	25	17	
	3	22	4	3	1	2	25	16	
	4	23	4	3	1	2	24	15	
	5	26	4	2	1	2	24	14	
	6	27	4	2	1	2	24	13	
62	1	2	3	4	2	2	28	29	
	2	5	3	4	1	2	28	27	
	3	6	3	3	1	2	28	25	
	4	13	3	3	1	2	27	25	
	5	25	3	1	1	1	27	22	
	6	27	3	1	1	1	27	21	
63	1	2	5	4	5	4	22	20	
	2	7	4	3	4	4	19	16	
	3	16	4	3	4	4	18	15	
	4	18	4	2	3	4	15	12	
	5	24	3	2	2	4	14	12	
	6	28	3	2	2	4	11	10	
64	1	5	5	5	5	5	27	15	
	2	10	5	4	5	4	24	15	
	3	14	5	4	5	4	22	12	
	4	16	5	4	5	3	19	10	
	5	17	5	4	5	3	17	7	
	6	28	5	4	5	3	16	7	
65	1	3	4	4	3	3	18	23	
	2	5	4	4	2	2	17	21	
	3	7	4	4	2	2	17	15	
	4	8	4	4	2	1	16	11	
	5	9	4	3	1	1	16	9	
	6	25	4	3	1	1	16	6	
66	1	6	5	2	3	4	23	6	
	2	8	3	1	3	4	22	4	
	3	10	3	1	3	4	22	3	
	4	11	3	1	3	4	21	3	
	5	12	1	1	3	4	20	2	
	6	28	1	1	3	4	20	1	
67	1	3	4	3	4	4	22	17	
	2	12	4	2	3	4	21	16	
	3	21	4	2	2	4	20	14	
	4	22	3	2	2	4	16	13	
	5	27	2	2	1	4	15	11	
	6	30	2	2	1	4	13	10	
68	1	1	3	5	1	5	15	17	
	2	2	3	4	1	4	10	16	
	3	4	2	3	1	3	9	16	
	4	9	2	2	1	3	6	15	
	5	22	2	1	1	1	5	14	
	6	28	1	1	1	1	1	14	
69	1	5	1	1	4	4	14	1	
	2	10	1	1	4	4	13	1	
	3	12	1	1	4	4	11	1	
	4	13	1	1	3	4	9	1	
	5	20	1	1	2	4	7	1	
	6	26	1	1	2	4	5	1	
70	1	10	4	5	3	3	10	28	
	2	11	4	5	2	3	9	25	
	3	18	4	5	2	3	9	24	
	4	22	4	5	2	3	9	21	
	5	27	4	5	1	3	8	21	
	6	29	4	5	1	3	8	18	
71	1	2	3	2	4	3	18	29	
	2	8	3	2	4	3	14	26	
	3	10	2	2	3	2	11	22	
	4	13	2	2	3	2	10	21	
	5	20	2	2	2	2	8	19	
	6	29	1	2	2	1	3	16	
72	1	8	4	5	2	3	26	27	
	2	18	3	3	1	3	26	21	
	3	22	3	3	1	3	26	20	
	4	24	2	2	1	3	25	17	
	5	25	2	2	1	3	25	10	
	6	27	1	1	1	3	25	7	
73	1	6	3	4	5	5	22	20	
	2	13	3	3	4	5	18	20	
	3	16	3	3	4	5	17	18	
	4	23	3	2	4	5	14	17	
	5	29	2	2	3	5	10	17	
	6	30	2	2	3	5	8	16	
74	1	1	5	3	4	4	24	10	
	2	6	3	3	3	4	23	8	
	3	23	3	3	3	4	23	7	
	4	24	3	3	3	3	23	6	
	5	25	2	2	3	3	22	4	
	6	26	1	2	3	3	22	2	
75	1	1	3	4	3	4	23	20	
	2	9	3	3	2	3	21	17	
	3	10	3	3	2	3	21	14	
	4	16	3	2	2	3	18	11	
	5	20	3	2	1	2	15	9	
	6	30	3	2	1	2	14	5	
76	1	2	2	4	1	3	23	22	
	2	4	2	3	1	2	21	19	
	3	9	2	3	1	2	20	18	
	4	12	2	3	1	2	16	12	
	5	25	1	3	1	1	11	9	
	6	30	1	3	1	1	9	4	
77	1	2	3	4	4	2	19	15	
	2	3	3	4	4	2	18	14	
	3	16	3	4	3	2	17	14	
	4	22	3	4	3	2	15	12	
	5	24	3	4	2	2	12	12	
	6	27	3	4	2	2	11	11	
78	1	18	4	1	1	4	25	29	
	2	23	4	1	1	3	20	28	
	3	26	3	1	1	3	17	28	
	4	27	2	1	1	3	11	28	
	5	28	1	1	1	3	8	28	
	6	29	1	1	1	3	5	28	
79	1	7	4	3	4	4	28	19	
	2	13	3	2	4	4	23	18	
	3	20	3	2	3	4	21	16	
	4	25	3	2	2	4	20	13	
	5	26	3	2	1	4	16	12	
	6	29	3	2	1	4	12	10	
80	1	3	4	4	4	1	7	13	
	2	8	3	3	4	1	6	13	
	3	9	3	2	4	1	6	12	
	4	10	2	2	4	1	6	11	
	5	13	1	2	3	1	6	10	
	6	29	1	1	3	1	6	10	
81	1	4	4	2	3	1	28	23	
	2	7	4	2	2	1	27	19	
	3	11	4	2	2	1	27	18	
	4	13	3	2	1	1	26	14	
	5	18	3	2	1	1	25	7	
	6	24	3	2	1	1	25	6	
82	1	7	2	3	5	4	29	20	
	2	10	1	3	4	3	25	18	
	3	17	1	3	4	3	21	18	
	4	18	1	3	4	2	19	18	
	5	23	1	3	3	2	13	17	
	6	29	1	3	3	1	12	16	
83	1	7	1	3	3	3	19	20	
	2	15	1	2	3	2	14	14	
	3	16	1	2	3	2	11	11	
	4	21	1	2	3	1	11	9	
	5	26	1	2	3	1	5	6	
	6	27	1	2	3	1	5	4	
84	1	4	1	5	4	1	28	21	
	2	8	1	4	4	1	26	21	
	3	12	1	4	4	1	26	20	
	4	13	1	4	4	1	24	20	
	5	16	1	4	4	1	22	20	
	6	22	1	4	4	1	20	20	
85	1	4	5	2	5	4	18	24	
	2	6	5	2	4	4	17	23	
	3	10	5	2	4	4	14	20	
	4	18	5	1	4	3	13	19	
	5	22	5	1	4	3	8	15	
	6	27	5	1	4	3	7	15	
86	1	5	4	4	2	2	13	29	
	2	6	4	3	2	1	12	21	
	3	12	4	3	2	1	12	18	
	4	16	4	3	2	1	11	12	
	5	17	4	3	2	1	10	11	
	6	21	4	3	2	1	10	7	
87	1	8	4	3	4	3	27	29	
	2	15	4	3	3	2	23	24	
	3	19	4	3	3	2	18	22	
	4	22	4	3	3	2	18	21	
	5	26	4	3	3	2	14	18	
	6	27	4	3	3	2	12	17	
88	1	2	3	3	2	1	23	14	
	2	8	3	3	2	1	23	13	
	3	13	3	3	2	1	20	12	
	4	16	3	3	2	1	19	7	
	5	21	3	3	2	1	15	6	
	6	24	3	3	2	1	15	4	
89	1	4	4	3	1	5	20	27	
	2	7	4	3	1	5	20	25	
	3	12	4	2	1	5	20	24	
	4	13	4	2	1	5	20	21	
	5	17	4	2	1	5	20	15	
	6	30	4	1	1	5	20	15	
90	1	2	1	4	1	3	28	14	
	2	10	1	4	1	2	27	13	
	3	11	1	4	1	2	27	12	
	4	24	1	4	1	2	26	12	
	5	25	1	3	1	1	26	10	
	6	26	1	3	1	1	26	9	
91	1	4	2	4	2	2	11	25	
	2	8	2	3	2	2	10	21	
	3	13	2	3	2	2	9	14	
	4	18	2	2	2	2	9	12	
	5	19	2	1	2	1	7	9	
	6	30	2	1	2	1	7	2	
92	1	6	5	4	1	4	21	24	
	2	10	4	4	1	3	20	20	
	3	14	4	4	1	3	20	19	
	4	16	4	3	1	2	20	15	
	5	17	3	3	1	1	19	14	
	6	26	3	2	1	1	18	13	
93	1	7	3	2	3	1	15	12	
	2	15	2	1	3	1	11	11	
	3	17	2	1	3	1	11	10	
	4	25	2	1	2	1	6	10	
	5	29	2	1	2	1	6	9	
	6	30	2	1	2	1	2	8	
94	1	3	5	1	3	2	6	28	
	2	7	4	1	3	2	6	27	
	3	8	4	1	3	2	6	26	
	4	9	4	1	3	2	6	25	
	5	10	3	1	2	2	6	26	
	6	19	3	1	2	2	6	25	
95	1	12	4	1	3	3	13	25	
	2	15	4	1	2	3	13	22	
	3	19	4	1	2	3	13	19	
	4	23	4	1	2	2	13	15	
	5	25	4	1	1	2	13	10	
	6	26	4	1	1	1	13	9	
96	1	5	4	1	4	3	15	29	
	2	15	3	1	4	3	13	29	
	3	16	3	1	4	3	13	28	
	4	19	3	1	3	3	12	28	
	5	27	3	1	3	3	11	28	
	6	29	3	1	3	3	11	27	
97	1	2	4	3	4	4	6	27	
	2	10	3	3	3	4	5	21	
	3	12	3	2	3	4	5	19	
	4	24	2	2	3	4	5	16	
	5	29	2	1	3	3	4	8	
	6	30	2	1	3	3	4	6	
98	1	2	3	3	2	5	15	26	
	2	4	3	3	2	4	14	23	
	3	5	3	3	2	4	13	23	
	4	8	3	2	2	4	10	21	
	5	9	2	2	2	3	7	20	
	6	29	2	2	2	3	6	19	
99	1	10	5	2	5	5	23	17	
	2	13	4	2	4	4	19	16	
	3	14	4	2	4	3	13	16	
	4	21	3	2	4	3	12	15	
	5	23	3	2	3	3	9	15	
	6	29	3	2	3	2	3	14	
100	1	2	5	4	4	2	7	21	
	2	5	4	4	4	2	7	18	
	3	12	4	4	3	2	6	17	
	4	24	3	3	3	2	5	11	
	5	25	3	2	2	1	4	9	
	6	27	3	2	2	1	3	6	
101	1	19	4	3	3	3	20	26	
	2	20	4	2	2	3	17	24	
	3	21	4	2	2	3	15	23	
	4	23	3	2	2	3	14	22	
	5	24	3	2	1	3	13	19	
	6	25	2	2	1	3	10	19	
102	1	0	0	0	0	0	0	0	
************************************************************************

 RESOURCE AVAILABILITIES 
	R 1	R 2	R 3	R 4	N 1	N 2
	25	24	23	22	1336	1323

************************************************************************
